TCS_Benchmarks/redos_fix/regexlib1_output_distinct_3232_3231_1_0.txt
([\.0-9\-a-z_]{0,})([\.0-9\-a-z_]{0,})
([\.0-9\-a-z_]{0,})([0-9a-z]\.[0-9a-z])([\.0-9\-a-z_]{0,})